Route #1: 0 20 21 43 51 0
Route #2: 0 2 49 9 26 0
Route #3: 0 35 52 47 4 0
Route #4: 0 45 33 24 0
Route #5: 0 44 32 55 46 0
Route #6: 0 57 23 40 31 0
Route #7: 0 1 3 25 12 17 0
Route #8: 0 36 5 58 39 0
Route #9: 0 13 11 10 0
Route #10: 0 53 59 14 0
Route #11: 0 50 16 56 42 0
Route #12: 0 7 27 37 48 29 0
Route #13: 0 6 28 30 0
Route #14: 0 34 8 15 22 18 0
Route #15: 0 38 19 54 41 0
Cost 1645:
